NAME : amz0814.141146_141146.tour
COMMENT : Cost = 141146_141146
COMMENT : Found by LKH-AMZ [Keld Helsgaun] Sun May 11 14:39:49 2025
COMMENT : TW viol.: 0 #: 0
TYPE : TOUR
DIMENSION : 162
TOUR_SECTION
110
136
16
154
130
6
91
133
112
92
95
94
86
45
35
29
105
83
18
121
4
71
111
72
69
153
55
134
56
33
146
157
89
107
149
116
152
117
34
53
63
97
142
147
132
36
39
43
30
73
47
101
51
12
124
79
122
85
131
42
32
23
8
5
141
20
150
66
87
99
155
13
62
98
59
144
24
139
44
57
68
50
54
118
37
31
104
81
75
108
119
140
84
143
1
103
161
96
156
114
162
3
49
40
76
115
148
10
64
65
159
17
70
14
60
26
126
129
120
74
27
22
125
67
127
90
58
38
137
2
82
93
52
158
7
80
106
78
128
135
25
145
123
113
21
41
46
109
11
138
28
160
9
151
15
19
61
102
100
48
88
77
-1
EOF
